(declare-const delta_j Int)
(declare-const delta_i Int)
(assert (exists
         ((|i'?1| Int) (|S1,0?2| Real) (|j'?3| Int) (KSUM1?4 Int)
            (|K1,0?5| Int) (K?6 Int) (|S1,0?7| Real) (|j'?8| Int)
            (KSUM1?9 Int) (|K1,0?10| Int) (K?11 Int) (|j'?12| Int) (j?13 Int)
            (ny?14 Int) (i?15 Int))
         (and (<= (- i?15) 0) (< (+ (- ny?14) i?15) 0) (<= (- K?11) 0)
                (<= (- |K1,0?10|) 0) (= (+ |K1,0?10| (- K?11)) 0)
                (<= (+ KSUM1?9 (- K?11)) 0)
                (= (+ (- |S1,0?7|) |j'?8| (- |K1,0?10|)) 0)
                (= (+ (- KSUM1?9) |K1,0?10|) 0) (= |S1,0?7| 0)
                (or (and (= K?11 0) (= (- |j'?8|) 0))
                      (and (<= (+ (- K?11) 1) 0) (<= (+ (- ny?14) 1) 0)
                             (<= (+ |j'?8| (- ny?14)) 0)
                             (<= (+ (- |j'?8|) 1) 0)))
                (= (+ |j'?8| (- K?11)) 0) (<= (- K?11) 0) (<= (- |j'?8|) 0)
                (< (- ny?14) 0) (<= (+ (- |j'?8|) ny?14) 0) (<= (- K?6) 0)
                (<= (- |K1,0?5|) 0) (= (+ |K1,0?5| (- K?6)) 0)
                (<= (+ KSUM1?4 (- K?6)) 0)
                (= (+ (- |S1,0?2|) |j'?3| (- |K1,0?5|)) 0)
                (= (+ (- KSUM1?4) |K1,0?5|) 0) (= |S1,0?2| 0)
                (or (and (= K?6 0) (= (- |j'?3|) 0))
                      (and (<= (+ (- K?6) 1) 0) (<= (+ (- ny?14) 1) 0)
                             (<= (+ |j'?3| (- ny?14)) 0)
                             (<= (+ (- |j'?3|) 1) 0)))
                (= (+ |j'?3| (- K?6)) 0) (<= (- K?6) 0) (<= (- |j'?3|) 0)
                (< (- ny?14) 0) (<= (+ (- |j'?3|) ny?14) 0)
                (= (+ |j'?12| (- |j'?3|)) 0) (= (+ |i'?1| (- i?15) -1) 0)
                (= delta_i (+ |i'?1| (- i?15)))
                (= delta_j (+ |j'?12| (- j?13))))))
(check-sat)
